p cnf 7230 17
-3740 -3742 -3746 -3752 -4319 4320 0
4319 -4321 0
-3736 -3738 -3744 -3748 -3750 4322 0
3736 -4323 0
3738 -4323 0
3740 -4321 0
3744 -4323 0
3742 -4321 0
3748 -4323 0
3746 -4321 0
-4322 4323 0
-4320 4321 0
-3734 4319 0
4318 -4319 0
3734 -4318 0
3750 -4323 0
3752 -4321 0
